NAME /Users/henri/Research/solvers/instances/idol-instances/robust/collection/cbp_Subramanyam_et_al_2020/CapBud_N15_12/models/uncertain_technology_matrix/
ROWS
 N  OBJ
 L  capacity
 L  c_1735
 L  c_1736
 L  c_1737
 L  c_1738
 L  c_1739
 L  c_1740
 L  c_1741
 L  c_1742
 L  c_1743
 L  c_1744
 L  c_1745
 L  c_1746
 L  c_1747
 L  c_1748
 L  c_1749
COLUMNS
    MARKER    'MARKER'                 'INTORG'
    x_0        OBJ        -8.89907
    x_0        c_1735     1
    x_0        capacity   1.77981
    x_1        OBJ        -6.42391
    x_1        c_1736     1
    x_1        capacity   1.28478
    x_2        OBJ        -1.96495
    x_2        c_1737     1
    x_2        capacity   0.392991
    x_3        OBJ        -6.84717
    x_3        c_1738     1
    x_3        capacity   1.36943
    x_4        OBJ        -1.86688
    x_4        c_1739     1
    x_4        capacity   0.373377
    x_5        OBJ        -6.3775
    x_5        c_1740     1
    x_5        capacity   1.2755
    x_6        OBJ        -2.16972
    x_6        c_1741     1
    x_6        capacity   0.433944
    x_7        OBJ        -7.13645
    x_7        c_1742     1
    x_7        capacity   1.42729
    x_8        OBJ        -9.82215
    x_8        c_1743     1
    x_8        capacity   1.96443
    x_9        OBJ        -4.915
    x_9        c_1744     1
    x_9        capacity   0.983
    x_10       OBJ        -6.61835
    x_10       c_1745     1
    x_10       capacity   1.32367
    x_11       OBJ        -9.99315
    x_11       c_1746     1
    x_11       capacity   1.99863
    x_12       OBJ        -4.01466
    x_12       c_1747     1
    x_12       capacity   0.802932
    x_13       OBJ        -8.11403
    x_13       c_1748     1
    x_13       capacity   1.62281
    x_14       OBJ        -1.02207
    x_14       c_1749     1
    x_14       capacity   0.204414
    y_0        OBJ        -7.11926
    y_0        c_1735     1
    y_0        capacity   1.77981
    y_1        OBJ        -5.13913
    y_1        c_1736     1
    y_1        capacity   1.28478
    y_2        OBJ        -1.57196
    y_2        c_1737     1
    y_2        capacity   0.392991
    y_3        OBJ        -5.47773
    y_3        c_1738     1
    y_3        capacity   1.36943
    y_4        OBJ        -1.49351
    y_4        c_1739     1
    y_4        capacity   0.373377
    y_5        OBJ        -5.102
    y_5        c_1740     1
    y_5        capacity   1.2755
    y_6        OBJ        -1.73578
    y_6        c_1741     1
    y_6        capacity   0.433944
    y_7        OBJ        -5.70916
    y_7        c_1742     1
    y_7        capacity   1.42729
    y_8        OBJ        -7.85772
    y_8        c_1743     1
    y_8        capacity   1.96443
    y_9        OBJ        -3.932
    y_9        c_1744     1
    y_9        capacity   0.983
    y_10       OBJ        -5.29468
    y_10       c_1745     1
    y_10       capacity   1.32367
    y_11       OBJ        -7.99452
    y_11       c_1746     1
    y_11       capacity   1.99863
    y_12       OBJ        -3.21173
    y_12       c_1747     1
    y_12       capacity   0.802932
    y_13       OBJ        -6.49123
    y_13       c_1748     1
    y_13       capacity   1.62281
    y_14       OBJ        -0.817657
    y_14       c_1749     1
    y_14       capacity   0.204414
    MARKER    'MARKER'                 'INTEND'
RHS
    RHS       capacity   43.0925
    RHS       c_1735     1
    RHS       c_1736     1
    RHS       c_1737     1
    RHS       c_1738     1
    RHS       c_1739     1
    RHS       c_1740     1
    RHS       c_1741     1
    RHS       c_1742     1
    RHS       c_1743     1
    RHS       c_1744     1
    RHS       c_1745     1
    RHS       c_1746     1
    RHS       c_1747     1
    RHS       c_1748     1
    RHS       c_1749     1
BOUNDS
 LI BND       x_0        0
 UI BND       x_0        1
 LI BND       x_1        0
 UI BND       x_1        1
 LI BND       x_2        0
 UI BND       x_2        1
 LI BND       x_3        0
 UI BND       x_3        1
 LI BND       x_4        0
 UI BND       x_4        1
 LI BND       x_5        0
 UI BND       x_5        1
 LI BND       x_6        0
 UI BND       x_6        1
 LI BND       x_7        0
 UI BND       x_7        1
 LI BND       x_8        0
 UI BND       x_8        1
 LI BND       x_9        0
 UI BND       x_9        1
 LI BND       x_10       0
 UI BND       x_10       1
 LI BND       x_11       0
 UI BND       x_11       1
 LI BND       x_12       0
 UI BND       x_12       1
 LI BND       x_13       0
 UI BND       x_13       1
 LI BND       x_14       0
 UI BND       x_14       1
 LI BND       y_0        0
 UI BND       y_0        1
 LI BND       y_1        0
 UI BND       y_1        1
 LI BND       y_2        0
 UI BND       y_2        1
 LI BND       y_3        0
 UI BND       y_3        1
 LI BND       y_4        0
 UI BND       y_4        1
 LI BND       y_5        0
 UI BND       y_5        1
 LI BND       y_6        0
 UI BND       y_6        1
 LI BND       y_7        0
 UI BND       y_7        1
 LI BND       y_8        0
 UI BND       y_8        1
 LI BND       y_9        0
 UI BND       y_9        1
 LI BND       y_10       0
 UI BND       y_10       1
 LI BND       y_11       0
 UI BND       y_11       1
 LI BND       y_12       0
 UI BND       y_12       1
 LI BND       y_13       0
 UI BND       y_13       1
 LI BND       y_14       0
 UI BND       y_14       1
ENDATA
